(set-info :smt-lib-version 2.6)
(set-logic QF_SLIA)
(set-info :source |
Generated by: Dmitry Blotsky1, Federico Mora, Murphy Berzish, Yunhui Zheng, Ifaz Kabir, Vijay Ganesh, Zhengyang Lu
Generated on: 2018-01-24
Generator: StringFuzz
Application: Evaluate string solvers
Target solver: Z3str3, CVC4, Z3str2, Norn
Publications: Blotsky, D., Mora, F., Berzish, M., Zheng, Y., Kabir, I., & Ganesh, V. (2018). Stringfuzz: A fuzzer for string solvers. In CAV 2018.
Description: new instance generated by StringFuzz, a modular string and regex fuzzer
|)
(set-info :license "https://creativecommons.org/licenses/by/4.0/")
(set-info :category "random")
(set-info :status unknown)

(declare-fun var0 () String)
(assert (str.in_re var0 (re.++ (re.* (re.union (str.to_re "00") (str.to_re "1"))) (re.++ (re.+ (re.* (str.to_re "22"))) (re.++ (re.* (re.* (str.to_re "33"))) (re.++ (re.+ (re.+ (str.to_re "4"))) (re.++ (re.union (re.+ (str.to_re "5")) (re.+ (str.to_re "6"))) (re.++ (re.union (re.+ (str.to_re "777")) (re.+ (str.to_re "88"))) (re.++ (re.* (re.* (str.to_re "99"))) (re.++ (re.+ (re.union (str.to_re "aaa") (str.to_re "bbb"))) (re.++ (re.+ (re.+ (str.to_re "c"))) (re.++ (re.union (re.* (str.to_re "ddd")) (re.union (str.to_re "e") (str.to_re "fff"))) (re.++ (re.+ (re.* (str.to_re "g"))) (re.++ (re.union (re.union (str.to_re "hhh") (str.to_re "ii")) (re.union (str.to_re "jjj") (str.to_re "kkk"))) (re.++ (re.+ (re.+ (str.to_re "l"))) (re.++ (re.union (re.* (str.to_re "mmm")) (re.+ (str.to_re "n"))) (re.++ (re.union (re.* (str.to_re "o")) (re.* (str.to_re "ppp"))) (re.++ (re.union (re.* (str.to_re "qqq")) (re.+ (str.to_re "rr"))) (re.++ (re.union (re.union (str.to_re "s") (str.to_re "tt")) (re.* (str.to_re "uuu"))) (re.++ (re.union (re.union (str.to_re "vv") (str.to_re "w")) (re.union (str.to_re "xxx") (str.to_re "y"))) (re.++ (re.union (re.union (str.to_re "zzz") (str.to_re "AAA")) (re.union (str.to_re "BB") (str.to_re "CCC"))) (re.++ (re.+ (re.union (str.to_re "D") (str.to_re "EEE"))) (re.++ (re.union (re.union (str.to_re "FFF") (str.to_re "GG")) (re.+ (str.to_re "HHH"))) (re.++ (re.+ (re.* (str.to_re "I"))) (re.++ (re.+ (re.* (str.to_re "JJ"))) (re.++ (re.* (re.union (str.to_re "KK") (str.to_re "LLL"))) (re.++ (re.* (re.union (str.to_re "MMM") (str.to_re "NNN"))) (re.++ (re.* (re.union (str.to_re "O") (str.to_re "PP"))) (re.++ (re.* (re.union (str.to_re "QQQ") (str.to_re "RR"))) (re.++ (re.* (re.+ (str.to_re "SSS"))) (re.* (re.* (str.to_re "TT")))))))))))))))))))))))))))))))))
(check-sat)
(exit)
